
Gurobi 11.0.3 (linux64) logging started Thu Apr 16 20:02:05 2026

Set parameter LogFile to value "tree/results/fish/fish_depth-3_run-3/Full MIP/LogFile_FullModel.txt"
Gurobi Optimizer version 11.0.3 build v11.0.3rc0 (linux64 - "CentOS Linux 7 (Core)")

CPU model: Intel(R) Xeon(R) Platinum 8260 CPU @ 2.40GHz, instruction set [SSE2|AVX|AVX2|AVX512]
Thread count: 96 physical cores, 192 logical processors, using up to 32 threads

Optimize a model with 244964 rows, 171506 columns and 1202820 nonzeros
Model fingerprint: 0xe6e60c1a
Model has 24480 general constraints
Variable types: 97994 continuous, 73512 integer (73512 binary)
Coefficient statistics:
  Matrix range     [3e-04, 1e+04]
  Objective range  [3e-04, 1e+04]
  Bounds range     [1e+00, 3e+03]
  RHS range        [1e-04, 3e+03]

User MIP start produced solution with objective -104399 (0.62s)
Loaded user MIP start with objective -104399

Presolve added 24472 rows and 73440 columns
Presolve time: 3.18s
Presolved: 269436 rows, 244946 columns, 1350324 nonzeros
Presolved model has 73440 SOS constraint(s)
Variable types: 97994 continuous, 146952 integer (146952 binary)

Deterministic concurrent LP optimizer: primal simplex, dual simplex, and barrier
Showing barrier log only...

Root relaxation presolved: 269436 rows, 244946 columns, 1350324 nonzeros

Root barrier log...

Ordering time: 0.12s

Barrier statistics:
 Dense cols : 28
 AA' NZ     : 1.282e+06
 Factor NZ  : 3.688e+06 (roughly 240 MB of memory)
 Factor Ops : 5.550e+07 (less than 1 second per iteration)
 Threads    : 30

                  Objective                Residual
Iter       Primal          Dual         Primal    Dual     Compl     Time
   0  -1.21963409e+05  2.35523302e+09  9.00e+03 5.68e-14  7.98e+05     8s
   1  -8.18324786e+04  3.64111166e+09  3.60e+03 2.57e+01  2.68e+05     8s
   2  -5.12577164e+04  3.56778316e+09  3.89e+02 5.96e+00  3.42e+04     8s
   3  -2.01511903e+04  2.07453066e+09  3.86e+01 6.39e-01  5.68e+03     9s
   4  -2.06844642e+03  3.39389375e+08  3.82e+00 6.38e-02  7.05e+02     9s
   5  -2.06655067e+02  3.97911104e+07  3.82e-01 6.38e-03  7.67e+01    10s
   6  -2.04758966e+01  4.06425799e+06  3.87e-02 6.38e-04  7.66e+00    10s
   7  -1.85763144e+00  4.09999324e+05  4.36e-03 6.43e-05  7.71e-01    10s
   8   8.00121390e-03  4.51413759e+04  7.57e-04 7.08e-06  8.49e-02    11s
   9   2.77896957e-01  8.65166551e+03  7.50e-05 1.35e-06  1.63e-02    11s
  10   8.45268104e-01  2.69674069e+03  7.43e-06 3.58e-07  5.08e-03    11s
  11   9.84536147e-01  4.87248174e+02  2.42e-06 6.39e-08  9.16e-04    12s
  12   9.36756634e-01  5.33354343e+01  2.40e-07 6.78e-09  9.88e-05    12s
  13   9.93675662e-01  6.35839739e+00  2.38e-08 6.78e-10  1.01e-05    13s
  14   9.99367566e-01  1.53603216e+00  2.39e-09 6.78e-11  1.01e-06    13s
  15   9.99936757e-01  1.05360352e+00  2.40e-10 6.78e-12  1.01e-07    14s
  16   9.99993676e-01  1.00536035e+00  2.48e-11 6.78e-13  1.01e-08    14s
  17   9.99999368e-01  1.00053604e+00  2.73e-12 6.78e-14  1.01e-09    15s
  18   9.99999937e-01  1.00005360e+00  4.55e-13 6.78e-15  1.01e-10    15s
  19   9.99999994e-01  1.00000536e+00  4.26e-13 1.42e-14  1.01e-11    16s
  20   9.99999999e-01  1.00000054e+00  4.26e-13 6.79e-17  1.01e-12    17s
  21   1.00000000e+00  1.00000005e+00  4.33e-13 6.79e-18  1.01e-13    17s
  22   1.00000000e+00  1.00000001e+00  4.55e-13 6.79e-19  1.01e-14    18s

Barrier solved model in 22 iterations and 17.82 seconds (10.13 work units)
Optimal objective 1.00000000e+00


Root crossover log...

   11835 DPushes remaining with DInf 0.0000000e+00                18s
       0 DPushes remaining with DInf 0.0000000e+00                18s

   96269 PPushes remaining with PInf 0.0000000e+00                18s
     352 PPushes remaining with PInf 1.6788983e-07                20s
       0 PPushes remaining with PInf 0.0000000e+00                20s

  Push phase complete: Pinf 0.0000000e+00, Dinf 0.0000000e+00     21s


Root simplex log...

Iteration    Objective       Primal Inf.    Dual Inf.      Time
   96273    1.0000000e+00   1.616383e-05   0.000000e+00     21s
   96276    1.0000000e+00   0.000000e+00   0.000000e+00     21s
   96276    1.0000000e+00   0.000000e+00   0.000000e+00     21s
Concurrent spin time: 0.01s

Solved with barrier

Root relaxation: objective 1.000000e+00, 96276 iterations, 15.84 seconds (9.17 work units)
Total elapsed time = 65.45s (DegenMoves)

    Nodes    |    Current Node    |     Objective Bounds      |     Work
 Expl Unexpl |  Obj  Depth IntInf | Incumbent    BestBd   Gap | It/Node Time

     0     0    1.00000    0 25137 -104399.32    1.00000   100%     -   66s
     0     2    1.00000    0 25137 -104399.32    1.00000   100%     - 1258s
     1     4    1.00000    1 25096 -104399.32    1.00000   100% 38558 2170s
     3     7    1.00000    2 25055 -104399.32    1.00000   100% 45700 3600s

Explored 6 nodes (454475 simplex iterations) in 3600.20 seconds (3323.84 work units)
Thread count was 32 (of 192 available processors)

Solution count 1: -104399 

Time limit reached
Best objective -1.043993212418e+05, best bound 1.000000000000e+00, gap 100.0010%

User-callback calls 2058669, time in user-callback 10.32 sec
